c ---- [ banner ] ------------------------------------------------------------
c
c Kissat SAT Solver
c 
c Copyright (c) 2021-2023 Armin Biere University of Freiburg
c Copyright (c) 2019-2021 Armin Biere Johannes Kepler University Linz
c 
c Version 3.1.1 unknown
c gcc (Ubuntu 9.4.0-1ubuntu1~20.04.2) 9.4.0 -W -Wall -O3 -DNDEBUG
c Mon Feb 26 18:18:52 CET 2024 Linux OptiPlex-7080 5.15.0-88-generic x86_64
c
c ---- [ parsing ] -----------------------------------------------------------
c
c opened and reading DIMACS file:
c
c   /home/oliveras/SAT-comp-2023//24b93d0bf941e4b050c9109e4cb7faf4-connm-ue-csp-sat-n600-d-0.02-s1022905465.used-as.sat04-951.cnf
c
c parsed 'p cnf 556 6427' header
c closing input after reading 105705 bytes (103 KB)
c finished parsing after 0.00 seconds
c
c ---- [ options ] -----------------------------------------------------------
c
c --seed=1                         (different from default '0')
c
c ---- [ solving ] -----------------------------------------------------------
c
c  seconds switched conflicts irredundant variables
c         MB reductions redundant    trail   remaining
c          level restarts   binary      glue
c
c *  0.00  2 0 0 0  0   0   0   0 6427 0% 0 556 100%
c {  0.01  2 0 0 0  0   0   0   0 6427 0% 0 556 100%
c -  0.03  3 22 0 1 280 1000 711  26 6426 39% 4 556 100%
c }  0.03  3 22 1 1 280 1000 711  26 6426 39% 4 556 100%
c [  0.03  3 0 1 1 280 1000 711  26 6426 0% 0 556 100%
c B  0.03  3 25 1 1 280 1001 712  26 6426 89% 4 556 100%
c u  0.05  3 40 1 1 280 1451 1115  62 6426 59% 7 556 100%
c v  0.06  3 40 1 1 280 1451 1106  71 6426 59% 7 556 100%
c w  0.07  3 40 1 1 280 1451 1125  85 6393 59% 7 556 100%
c t  0.07  3 40 1 1 280 1451 1125  27 6393 59% 7 556 100%
c ]  0.09  3 30 2 1 280 1878 1539  27 6393 57% 8 556 100%
c {  0.09  3 22 2 1 280 1878 1539  27 6393 39% 4 556 100%
c -  0.09  3 21 2 2 282 2000 1255  31 6393 40% 4 556 100%
c }  0.11  3 18 3 2 324 2878 2088  39 6393 48% 4 556 100%
c [  0.11  3 30 3 2 324 2878 2088  39 6393 57% 8 556 100%
c W  0.11  3 30 3 2 324 2878 2088  39 6393 57% 8 556 100%
c u  0.11  3 30 3 2 324 2902 2063  83 6393 57% 8 556 100%
c v  0.13  3 30 3 2 324 2902 2057  89 6393 57% 8 556 100%
c w  0.13  3 30 3 2 324 2902 2057  92 6390 57% 8 556 100%
c t  0.14  3 30 3 2 324 2902 2057  43 6390 57% 8 556 100%
c
c  seconds  switched conflicts    irredundant variables
c         MB reductions   redundant       trail   remaining
c          level restarts       binary       glue
c
c -  0.16  3 30 3 3 324 3414 1930  43 6390 62% 8 556 100%
c ]  0.16  3 30 4 3 324 3593 2103  43 6390 63% 8 556 100%
c {  0.16  3 18 4 3 324 3593 2103  43 6390 48% 4 556 100%
c -  0.22  3 20 4 4 850 5146 2809  45 6390 48% 5 556 100%
c }  0.23  3 20 4 4 909 5380 3036  45 6390 48% 5 556 100%
c 1  0.23  3 20 4 4 909 5380 3036  45 6390 48% 5 556 100%
c
c ---- [ result ] ------------------------------------------------------------
c
s SATISFIABLE
v 1 -2 -3 -4 -5 6 -7 -8 -9 -10 -11 12 -13 -14 -15 16 -17 18 -19 -20 -21 22 -23
v -24 25 -26 -27 -28 -29 -30 31 -32 -33 -34 35 -36 -37 38 -39 -40 -41 -42 -43
v 44 -45 46 -47 -48 -49 -50 -51 52 -53 -54 -55 56 -57 58 -59 -60 -61 62 -63
v -64 -65 -66 67 -68 -69 -70 -71 72 -73 74 -75 -76 -77 -78 79 -80 -81 82 -83
v -84 -85 -86 87 -88 89 -90 -91 -92 -93 -94 -95 96 -97 98 -99 -100 101 -102
v -103 -104 -105 -106 107 -108 -109 110 -111 -112 -113 114 -115 -116 -117 -118
v -119 120 -121 -122 123 -124 -125 -126 127 -128 -129 -130 131 -132 -133 134
v -135 -136 -137 138 -139 -140 -141 -142 -143 144 145 -146 -147 -148 149 -150
v -151 -152 -153 154 -155 -156 -157 -158 -159 160 -161 -162 163 -164 -165 -166
v 167 -168 -169 170 -171 -172 -173 174 -175 -176 -177 -178 179 -180 -181 -182
v 183 -184 -185 -186 -187 188 -189 -190 -191 192 -193 -194 195 -196 -197 -198
v -199 200 201 -202 -203 -204 -205 206 -207 -208 209 -210 -211 -212 213 -214
v -215 -216 -217 218 -219 -220 -221 -222 -223 224 -225 -226 227 -228 229 -230
v -231 -232 233 -234 -235 -236 -237 -238 -239 240 -241 -242 243 -244 -245 -246
v -247 248 249 -250 -251 -252 -253 254 -255 -256 -257 258 -259 -260 261 -262
v -263 -264 -265 -266 -267 268 -269 270 -271 -272 -273 274 -275 -276 -277 278
v -279 -280 -281 -282 283 -284 -285 -286 -287 288 289 -290 -291 -292 -293 -294
v -295 296 -297 298 -299 -300 -301 302 -303 -304 -305 306 -307 -308 -309 -310
v 311 -312 -313 -314 -315 316 -317 -318 -319 320 -321 -322 -323 324 -325 -326
v 327 -328 -329 -330 331 -332 333 -334 -335 -336 -337 -338 339 -340 -341 342
v -343 -344 345 -346 -347 -348 -349 -350 351 -352 -353 354 -355 -356 357 -358
v -359 -360 -361 362 -363 -364 365 -366 -367 -368 -369 370 -371 -372 -373 -374
v -375 376 -377 -378 379 -380 -381 382 -383 -384 -385 386 -387 -388 -389 -390
v 391 -392 -393 394 -395 -396 -397 398 -399 -400 -401 402 -403 -404 -405 -406
v 407 -408 -409 -410 -411 412 -413 414 -415 -416 -417 418 -419 -420 421 -422
v -423 -424 425 -426 -427 -428 429 -430 -431 -432 433 -434 -435 -436 437 -438
v -439 -440 441 -442 -443 -444 -445 -446 -447 448 449 -450 -451 -452 453 -454
v -455 -456 -457 458 -459 -460 -461 462 -463 -464 -465 466 -467 -468 469 -470
v -471 -472 473 -474 -475 -476 -477 -478 -479 480 -481 482 -483 -484 -485 486
v -487 -488 -489 -490 491 -492 -493 -494 -495 496 -497 -498 499 -500 501 -502
v -503 -504 -505 -506 507 -508 509 -510 -511 -512 513 -514 -515 -516 -517 -518
v -519 520 -521 -522 523 -524 -525 -526 -527 528 -529 -530 531 -532 -533 534
v -535 -536 -537 -538 539 -540 -541 542 -543 -544 -545 546 -547 -548 -549 -550
v -551 552 553 -554 -555 -556 0
c
c ---- [ profiling ] ---------------------------------------------------------
c
c           0.16   70.60 %  search
c           0.11   49.37 %  focused
c           0.06   27.14 %  simplify
c           0.06   26.31 %  probe
c           0.05   21.13 %  stable
c           0.05   20.20 %  vivify
c           0.01    4.47 %  sweep
c           0.00    1.96 %  parse
c           0.00    1.25 %  substitute
c           0.00    1.00 %  reduce
c           0.00    0.82 %  walking
c           0.00    0.28 %  transitive
c           0.00    0.08 %  backbone
c           0.00    0.00 %  warmup
c =============================================
c           0.23  100.00 %  total
c
c ---- [ statistics ] --------------------------------------------------------
c
c conflicts:                             5380            23639.42 per second
c decisions:                            27442                5.10 per conflict
c propagations:                        733801          3224280    per second
c queue_decisions:                      22455               82 %  decision
c random_decisions:                      2296                8 %  decision
c random_sequences:                         7              769    interval
c reductions:                               4             1345    interval
c rephased:                                 2             2690    interval
c restarts:                               909                5.92 interval
c score_decisions:                       2691               10 %  decision
c switched:                                 4             1345    interval
c vivified:                               580                4 %  checks
c vivify_checks:                        13059             6530    per vivify
c vivify_units:                             0                0 %  variables
c walk_improved:                            1              100 %  walks
c walks:                                    1             5380    interval
c
c ---- [ resources ] ---------------------------------------------------------
c
c maximum-resident-set-size:          3334144 bytes          3 MB
c process-time:                                              0.23 seconds
c
c ---- [ shutting down ] -----------------------------------------------------
c
c exit 10
